NAME : portcgen-17-3
COMMENT : portcgen N=17, seed=3
TYPE : TSP
DIMENSION : 17
EDGE_WEIGHT_TYPE : EUC_2D
NODE_COORD_SECTION
1 312730 144027
2 -107790 -257746
3 -160204 364930
4 -128651 397664
5 -252997 23195
6 125005 -298937
7 -31507 -327389
8 221592 252944
9 -206760 -329875
10 87349 -222915
11 -208190 -35069
12 194995 359905
13 80494 -29779
14 -342798 -380178
15 -65462 142182
16 132335 85238
17 617933 424772
